32	0

0	3	2	4	5
4	1	3
10	2	6	7
9	2	6	7
6	2	6	7
1	2	8	9
5	2	8	10
7	1	11
7	1	10
7	1	11
8	1	12
5	1	13
6	2	14	15
2	1	16
2	1	16
9	2	17	18
8	2	19	20
3	2	19	20
10	2	21	22
2	2	21	22
5	1	23
1	1	23
4	2	24	25
7	3	26	27	28
4	3	26	27	28
3	1	29
10	1	29
10	1	29
5	2	30	31
5	1	32
4	1	32
0	0
